fieldWidth = 5;
fieldWidthSquared = 25;

maxTurns = 25;

field = [ 0, 0, 0, 0, 0, 0, 0, 0, 0, 0, 0, 0, 1, 0, 0, 0, 0, 0, 0, 0, 0, 0, 0, 0, 0 ]

% field = [ 0, 0, 0, 0, 0,
%           0, 0, 0, 0, 0,
%           0, 0, 1, 0, 0,
%           0, 0, 0, 0, 0,
%           0, 0, 0, 0, 0 ]
